79
0 58 38 7 78 54 53 49 33 43 
28 13 31 75 12 71 14 3 5 39 
44 70 60 22 56 41 52 42 65 27 
59 77 69 24 26 15 61 10 57 9 
8 21 48 4 74 68 67 45 1 46 
11 66 30 34 36 37 55 72 32 76 
51 29 64 62 6 18 47 16 23 2 
40 50 73 17 19 35 20 63 25 
